# Objective value = 1.9529586111253830e+03
x[0] 0
x[1] 0
x[2] 1
x[3] 0
x[4] 0
x[5] 0
x[6] 0
x[7] 1
x[8] 1
x[9] 1
x[10] 1
x[11] 0
x[12] 1
x[13] 1
x[14] 1
x[15] 1
x[16] 1
x[17] 1
x[18] 0
x[19] 1
x[20] 0
x[21] 1
x[22] 1
x[23] 0
x[24] 0
x[25] 1
x[26] 1
x[27] 1
x[28] 1
x[29] 0
x[30] 0
x[31] 0
x[32] 1
x[33] 0
x[34] 1
x[35] 1
x[36] 1
x[37] 1
x[38] 0
x[39] 1
x[40] 1
x[41] 1
x[42] 1
x[43] 0
x[44] 0
x[45] 0
x[46] 1
x[47] 0
x[48] 1
x[49] 1
x[50] 0
x[51] 0
x[52] 0
x[53] 0
x[54] 0
x[55] 1
x[56] 0
x[57] 0
x[58] 0
x[59] 0
x[60] 0
x[61] 1
x[62] 0
x[63] 0
x[64] 1
x[65] 1
x[66] 1
x[67] 0
x[68] 0
x[69] 0
x[70] 1
x[71] 0
x[72] 1
x[73] 0
x[74] 0
x[75] 1
x[76] 0
x[77] 0
x[78] 0
x[79] 0
x[80] 0
x[81] 0
x[82] 1
x[83] 1
x[84] 1
x[85] 0
x[86] 0
x[87] 0
x[88] 1
x[89] 0
x[90] 1
x[91] 0
x[92] 1
x[93] 1
x[94] 0
x[95] 0
x[96] 1
x[97] 0
x[98] 0
x[99] 1
x[100] 1
x[101] 0
x[102] 0
x[103] 0
x[104] 0
x[105] 1
x[106] 1
x[107] 1
x[108] 0
x[109] 0
x[110] 0
x[111] 0
x[112] 0
x[113] 1
x[114] 0
x[115] 0
x[116] 0
x[117] 1
x[118] 1
x[119] 1
x[120] 0
x[121] 0
x[122] 1
x[123] 1
x[124] 1
x[125] 0
x[126] 0
x[127] 1
x[128] 0
x[129] 1
x[130] 1
x[131] 0
x[132] 1
x[133] 1
x[134] 1
x[135] 1
x[136] 1
x[137] 0
x[138] 1
x[139] 0
x[140] 0
x[141] 0
x[142] 1
x[143] 1
x[144] 1
x[145] 0
x[146] 0
x[147] 1
x[148] 0
x[149] 1
x[150] 0
x[151] 1
x[152] 1
x[153] 1
x[154] 0
x[155] 0
x[156] 1
x[157] 1
x[158] 1
x[159] 0
x[160] 1
x[161] 0
x[162] 1
x[163] 1
x[164] 1
x[165] 0
x[166] 0
x[167] 0
x[168] 0
x[169] 1
x[170] 0
x[171] 0
x[172] 1
x[173] 0
x[174] 1
x[175] 0
x[176] 1
x[177] 0
x[178] 0
x[179] 0
x[180] 0
x[181] 0
x[182] 1
x[183] 0
x[184] 1
x[185] 0
x[186] 1
x[187] 1
x[188] 0
x[189] 1
x[190] 1
x[191] 0
x[192] 1
x[193] 0
x[194] 0
x[195] 0
x[196] 0
x[197] 1
x[198] 0
x[199] 1
x[200] 1
x[201] 1
x[202] 1
x[203] 1
x[204] 1
x[205] 0
x[206] 0
x[207] 1
x[208] 1
x[209] 0
x[210] 0
x[211] 0
x[212] 1
x[213] 1
x[214] 1
x[215] 0
x[216] 1
x[217] 0
x[218] 1
x[219] 1
x[220] 1
x[221] 0
x[222] 1
x[223] 1
x[224] 1
x[225] 0
x[226] 0
x[227] 1
x[228] 1
x[229] 1
x[230] 0
x[231] 0
x[232] 0
x[233] 0
x[234] 1
x[235] 1
x[236] 0
x[237] 0
x[238] 0
x[239] 1
x[240] 1
x[241] 1
x[242] 1
x[243] 0
x[244] 1
x[245] 0
x[246] 1
x[247] 0
x[248] 1
x[249] 1
x[250] 0
x[251] 0
x[252] 0
x[253] 1
x[254] 0
x[255] 0
x[256] 1
x[257] 1
x[258] 0
x[259] 0
x[260] 1
x[261] 0
x[262] 1
x[263] 1
x[264] 0
x[265] 1
x[266] 0
x[267] 0
x[268] 1
x[269] 1
x[270] 0
x[271] 1
x[272] 1
x[273] 0
x[274] 1
x[275] 0
x[276] 1
x[277] 1
x[278] 0
x[279] 0
x[280] 0
x[281] 1
x[282] 0
x[283] 0
x[284] 1
x[285] 0
x[286] 1
x[287] 1
x[288] 1
x[289] 0
x[290] 1
x[291] 1
x[292] 1
x[293] 0
x[294] 1
x[295] 0
x[296] 0
x[297] 0
x[298] 0
x[299] 1
x[300] 1
x[301] 1
x[302] 0
x[303] 1
x[304] 0
x[305] 0
x[306] 1
x[307] 0
x[308] 0
x[309] 0
x[310] 1
x[311] 1
x[312] 1
x[313] 1
x[314] 1
x[315] 0
x[316] 0
x[317] 0
x[318] 1
x[319] 0
x[320] 1
x[321] 1
x[322] 1
x[323] 1
x[324] 0
x[325] 1
x[326] 1
x[327] 0
x[328] 1
x[329] 1
x[330] 0
x[331] 0
x[332] 1
x[333] 1
x[334] 1
x[335] 0
x[336] 1
x[337] 0
x[338] 0
x[339] 0
x[340] 1
x[341] 1
x[342] 0
x[343] 1
x[344] 0
x[345] 0
x[346] 0
x[347] 1
x[348] 1
x[349] 0
x[350] 1
x[351] 1
x[352] 1
x[353] 1
x[354] 1
x[355] 0
x[356] 1
x[357] 0
x[358] 1
x[359] 0
x[360] 1
x[361] 0
x[362] 0
x[363] 1
x[364] 0
x[365] 1
x[366] 0
x[367] 0
x[368] 1
x[369] 1
x[370] 1
x[371] 0
x[372] 1
x[373] 0
x[374] 1
x[375] 1
x[376] 0
x[377] 1
x[378] 1
x[379] 1
x[380] 0
x[381] 1
x[382] 1
x[383] 0
x[384] 1
x[385] 0
x[386] 0
x[387] 1
x[388] 1
x[389] 1
x[390] 0
x[391] 0
x[392] 0
x[393] 1
x[394] 1
x[395] 1
x[396] 1
x[397] 0
x[398] 1
x[399] 0
x[400] 1
x[401] 1
x[402] 1
x[403] 0
x[404] 0
x[405] 0
x[406] 1
x[407] 0
x[408] 1
x[409] 0
x[410] 1
x[411] 0
x[412] 0
x[413] 1
x[414] 1
x[415] 1
x[416] 0
x[417] 1
x[418] 0
x[419] 1
x[420] 1
x[421] 0
x[422] 1
x[423] 1
x[424] 1
x[425] 1
x[426] 1
x[427] 1
x[428] 1
x[429] 0
x[430] 0
x[431] 0
x[432] 0
x[433] 0
x[434] 0
x[435] 1
x[436] 0
x[437] 1
x[438] 0
x[439] 0
x[440] 1
x[441] 1
x[442] 1
x[443] 1
x[444] 0
x[445] 0
x[446] 1
x[447] 0
x[448] 1
x[449] 1
x[450] 0
x[451] 1
x[452] 0
x[453] 1
x[454] 1
x[455] 1
x[456] 1
x[457] 1
x[458] 0
x[459] 0
x[460] 0
x[461] 0
x[462] 0
x[463] 1
x[464] 0
x[465] 1
x[466] 0
x[467] 1
x[468] 0
x[469] 0
x[470] 1
x[471] 1
x[472] 0
x[473] 0
x[474] 1
x[475] 1
x[476] 0
x[477] 1
x[478] 0
x[479] 1
x[480] 1
x[481] 0
x[482] 1
x[483] 0
x[484] 1
x[485] 1
x[486] 0
x[487] 1
x[488] 0
x[489] 0
x[490] 0
x[491] 1
x[492] 1
x[493] 1
x[494] 1
x[495] 1
x[496] 1
x[497] 1
x[498] 1
x[499] 1
x[500] 0
x[501] 1
x[502] 1
x[503] 0
x[504] 1
x[505] 0
x[506] 1
x[507] 1
x[508] 0
x[509] 0
x[510] 0
x[511] 0
x[512] 1
x[513] 1
x[514] 1
x[515] 1
x[516] 1
x[517] 1
x[518] 1
x[519] 0
x[520] 1
x[521] 0
x[522] 0
x[523] 0
x[524] 1
x[525] 1
x[526] 1
x[527] 0
x[528] 1
x[529] 0
x[530] 0
x[531] 1
x[532] 1
x[533] 1
x[534] 0
x[535] 0
x[536] 0
x[537] 0
x[538] 1
x[539] 1
x[540] 1
x[541] 1
x[542] 0
x[543] 0
x[544] 1
x[545] 1
x[546] 1
x[547] 0
x[548] 1
x[549] 0
x[550] 1
x[551] 0
x[552] 0
x[553] 0
x[554] 1
x[555] 1
x[556] 1
x[557] 0
x[558] 0
x[559] 1
x[560] 0
x[561] 0
x[562] 0
x[563] 1
x[564] 1
x[565] 1
x[566] 0
x[567] 1
x[568] 0
x[569] 1
x[570] 1
x[571] 0
x[572] 1
x[573] 1
x[574] 0
x[575] 1
x[576] 1
x[577] 0
x[578] 1
x[579] 0
x[580] 1
x[581] 0
x[582] 0
x[583] 0
x[584] 1
x[585] 1
x[586] 1
x[587] 0
x[588] 1
x[589] 0
x[590] 1
x[591] 1
x[592] 1
x[593] 0
x[594] 1
x[595] 1
x[596] 1
x[597] 1
x[598] 1
x[599] 1
x[600] 1
x[601] 0
x[602] 0
x[603] 1
x[604] 1
x[605] 1
x[606] 1
x[607] 0
x[608] 0
x[609] 1
x[610] 0
x[611] 0
x[612] 0
x[613] 1
x[614] 0
x[615] 1
x[616] 1
x[617] 0
x[618] 1
x[619] 0
x[620] 1
x[621] 0
x[622] 1
x[623] 1
x[624] 0
x[625] 1
x[626] 0
x[627] 0
x[628] 0
x[629] 1
x[630] 1
x[631] 1
x[632] 1
x[633] 0
x[634] 1
x[635] 1
x[636] 1
x[637] 1
x[638] 1
x[639] 0
x[640] 1
x[641] 0
x[642] 0
x[643] 0
x[644] 1
x[645] 0
x[646] 1
x[647] 1
x[648] 0
x[649] 1
x[650] 1
x[651] 0
x[652] 1
x[653] 1
x[654] 0
x[655] 1
x[656] 1
x[657] 0
x[658] 0
x[659] 1
x[660] 1
x[661] 1
x[662] 1
x[663] 1
x[664] 1
x[665] 0
x[666] 1
x[667] 1
x[668] 1
x[669] 1
x[670] 0
x[671] 0
x[672] 1
x[673] 1
x[674] 1
x[675] 1
x[676] 1
x[677] 1
x[678] 1
x[679] 1
x[680] 1
x[681] 0
x[682] 0
x[683] 0
x[684] 0
x[685] 0
x[686] 1
x[687] 0
x[688] 1
x[689] 1
x[690] 1
x[691] 0
x[692] 1
x[693] 1
x[694] 1
x[695] 1
x[696] 0
x[697] 0
x[698] 0
x[699] 1
x[700] 0
x[701] 1
x[702] 1
x[703] 1
x[704] 1
x[705] 1
x[706] 1
x[707] 1
x[708] 1
x[709] 0
x[710] 1
x[711] 0
x[712] 1
x[713] 1
x[714] 1
x[715] 0
x[716] 0
x[717] 1
x[718] 0
x[719] 1
x[720] 1
x[721] 1
x[722] 0
x[723] 0
x[724] 1
x[725] 0
x[726] 1
x[727] 0
x[728] 1
x[729] 0
x[730] 0
x[731] 0
x[732] 0
x[733] 1
x[734] 1
x[735] 1
x[736] 1
x[737] 0
x[738] 1
x[739] 1
x[740] 0
x[741] 0
x[742] 0
x[743] 1
x[744] 0
x[745] 0
x[746] 1
x[747] 1
x[748] 1
x[749] 1
x[750] 1
x[751] 1
x[752] 1
x[753] 1
x[754] 1
x[755] 1
x[756] 1
x[757] 1
x[758] 1
x[759] 0
x[760] 0
x[761] 0
x[762] 1
x[763] 0
x[764] 1
x[765] 1
x[766] 1
x[767] 1
x[768] 1
x[769] 0
x[770] 1
x[771] 1
x[772] 1
x[773] 0
x[774] 0
x[775] 1
x[776] 0
x[777] 1
x[778] 0
x[779] 1
x[780] 1
x[781] 0
x[782] 0
x[783] 1
x[784] 1
x[785] 1
x[786] 1
x[787] 1
x[788] 1
x[789] 0
x[790] 1
x[791] 0
x[792] 0
x[793] 1
x[794] 0
x[795] 0
x[796] 1
x[797] 1
x[798] 1
x[799] 1
x[800] 1
x[801] 1
x[802] 0
x[803] 1
x[804] 1
x[805] 1
x[806] 1
x[807] 1
x[808] 0
x[809] 1
x[810] 0
x[811] 1
x[812] 0
x[813] 0
x[814] 1
x[815] 1
x[816] 0
x[817] 0
x[818] 0
x[819] 1
x[820] 0
x[821] 0
x[822] 1
x[823] 0
x[824] 0
x[825] 0
x[826] 1
x[827] 1
x[828] 0
x[829] 1
x[830] 0
x[831] 0
x[832] 0
x[833] 1
x[834] 1
x[835] 0
x[836] 0
x[837] 1
x[838] 0
x[839] 0
x[840] 1
x[841] 1
x[842] 1
x[843] 1
x[844] 1
x[845] 0
x[846] 0
x[847] 0
x[848] 0
x[849] 0
x[850] 0
x[851] 0
x[852] 1
x[853] 0
x[854] 0
x[855] 1
x[856] 1
x[857] 1
x[858] 0
x[859] 1
x[860] 1
x[861] 1
x[862] 0
x[863] 1
x[864] 0
x[865] 0
x[866] 1
x[867] 0
x[868] 0
x[869] 0
x[870] 0
x[871] 0
x[872] 1
x[873] 0
x[874] 0
x[875] 1
x[876] 1
x[877] 1
x[878] 1
x[879] 0
x[880] 0
x[881] 0
x[882] 1
x[883] 1
x[884] 1
x[885] 1
x[886] 0
x[887] 0
x[888] 0
x[889] 1
x[890] 1
x[891] 0
x[892] 0
x[893] 1
x[894] 0
x[895] 1
x[896] 0
x[897] 1
x[898] 0
x[899] 1
x[900] 1
x[901] 1
x[902] 1
x[903] 1
x[904] 1
x[905] 1
x[906] 1
x[907] 0
x[908] 0
x[909] 1
x[910] 1
x[911] 1
x[912] 1
x[913] 0
x[914] 1
x[915] 1
x[916] 0
x[917] 0
x[918] 1
x[919] 0
x[920] 1
x[921] 1
x[922] 1
x[923] 1
x[924] 1
x[925] 0
x[926] 0
x[927] 0
x[928] 1
x[929] 0
x[930] 0
x[931] 1
x[932] 0
x[933] 1
x[934] 1
x[935] 1
x[936] 1
x[937] 0
x[938] 1
x[939] 0
x[940] 1
x[941] 1
x[942] 1
x[943] 1
x[944] 1
x[945] 1
x[946] 1
x[947] 0
x[948] 1
x[949] 1
x[950] 1
x[951] 0
x[952] 1
x[953] 1
x[954] 1
x[955] 0
x[956] 1
x[957] 0
x[958] 1
x[959] 1
x[960] 1
x[961] 1
x[962] 1
x[963] 1
x[964] 1
x[965] 1
x[966] 0
x[967] 1
x[968] 1
x[969] 1
x[970] 1
x[971] 1
x[972] 0
x[973] 1
x[974] 1
x[975] 1
x[976] 1
x[977] 1
x[978] 0
x[979] 0
x[980] 0
x[981] 0
x[982] 0
x[983] 0
x[984] 0
x[985] 1
x[986] 1
x[987] 1
x[988] 1
x[989] 1
x[990] 0
x[991] 1
x[992] 1
x[993] 1
x[994] 0
x[995] 1
x[996] 1
x[997] 1
x[998] 0
x[999] 0
